9567
0 1 0 1 0 1 1 0 0 1 0 0 1 0 0 1 0 1 1 1 
5 5 5 5 5 5 5 5 19 19 19 19 19 19 19 19 19 12 12 12 12 3 3 12 3 9 9 9 9 9 9 9 9 15 18 18 18 18 18 18 18 18 18 18 5 5 19 12 3 15 15 3 6 18 5 15 3 3 1 6 18 15 15 15 3 3 15 5 6 5 17 18 6 3 3 15 3 6 6 15 18 19 3 15 15 3 1 6 15 1 15 15 17 17 15 17 1 6 1 5 
